c WARNING: for repeatability, setting FPU to use double precision
d VARIABLES            61300        
d CONSTRAINTS          261893       
c ============================[ Problem Statistics ]=============================
c |                                                                             |
c |  Number of variables:         61300                                         |
c |  Number of clauses:          261893                                         |
c |  Parse time:                   0.04 s                                       |
c |                                                                             |
c ============================[ Search Statistics ]==============================
c | Conflicts |          ORIGINAL         |          LEARNT          | Progress |
c |           |    Vars  Clauses Literals |    Limit  Clauses Lit/Cl |          |
c ===============================================================================
c |       100 |   49107   227209   552974 |    83309      100     36 | 19.891 % |
c |       250 |   49107   227209   552974 |    91640      250     57 | 19.891 % |
c |       475 |   49107   227209   552974 |   100805      475     56 | 19.891 % |
c |       812 |   49107   227209   552974 |   110885      812     54 | 19.891 % |
c |      1318 |   49107   227209   552974 |   121974     1318     61 | 19.891 % |
c |      2077 |   49107   227209   552974 |   134171     2077     63 | 19.891 % |
c |      3216 |   49107   227209   552974 |   147588     3216     63 | 19.891 % |
c |      4924 |   49107   227209   552974 |   162347     4924     63 | 19.891 % |
c |      7486 |   49107   227209   552974 |   178582     7486     82 | 19.891 % |
c |     11330 |   49107   227209   552974 |   196440    11330     94 | 19.891 % |
c |     17096 |   49107   227209   552974 |   216084    17096     95 | 19.891 % |
c |     25745 |   49107   227209   552974 |   237693    25745     92 | 19.891 % |
c |     38719 |   49107   227209   552974 |   261462    38719     95 | 19.891 % |
c |     58180 |   49107   227209   552974 |   287608    58180    102 | 19.891 % |
c |     87372 |   49107   227209   552974 |   316369    87372     98 | 19.891 % |
c |    131161 |   49107   227209   552974 |   348006   131161     93 | 19.891 % |
c |    196845 |   49107   227209   552974 |   382807   196845     91 | 19.891 % |
c |    295371 |   49107   227209   552974 |   421087   295371     94 | 19.891 % |
c |    443160 |   49107   227209   552974 |   463196    30691     58 | 19.891 % |
c |    664843 |   49107   227209   552974 |   509516   252374    116 | 19.891 % |
c |    997368 |   49107   227209   552974 |   560467    92719     92 | 19.891 % |
c |   1496156 |   49107   227209   552974 |   616514    53437     69 | 19.891 % |
c |   2244338 |   49106   227199   552951 |   678166   197666    118 | 19.892 % |
c ===============================================================================
c restarts              : 5117
c conflicts             : 2903409        (1622 /sec)
c decisions             : 4871453        (0.00 % random) (2721 /sec)
c propagations          : 3189658465     (1781669 /sec)
c conflict literals     : 284072586      (55.94 % deleted)
d RESTARTS             5117
d FAILURES             2903409      
d NODES                4871453      
d BACKTRACKS           4871453      
d PROPAGATIONS         3189658465   
d NOGOODSIZE           97.84 
d MEMORY               481.00 
d TIME                 1790.26 

s UNKNOWN
